p cnf 22 214
3 2 4 0
3 2 8 0
3 4 18 0
3 8 18 0
4 3 5 0
4 3 6 0
4 3 10 0
4 3 14 0
4 3 15 0
4 3 16 0
4 3 17 0
4 3 19 0
4 3 20 0
4 5 11 0
4 6 11 0
4 10 11 0
4 11 14 0
4 11 15 0
4 11 16 0
4 11 17 0
4 11 19 0
4 11 20 0
5 1 4 0
5 1 8 0
5 1 9 0
5 1 20 0
5 4 7 0
5 4 21 0
5 7 9 0
5 7 20 0
5 9 21 0
5 20 21 0
6 1 4 0
6 1 8 0
6 1 9 0
6 1 20 0
6 4 7 0
6 4 21 0
6 7 9 0
6 7 20 0
6 9 21 0
6 20 21 0
7 1 8 0
8 3 5 0
8 3 6 0
8 3 7 0
8 3 10 0
8 3 13 0
8 3 14 0
8 3 15 0
8 3 16 0
8 3 17 0
8 3 19 0
8 3 20 0
8 3 21 0
8 4 7 0
8 4 13 0
8 4 21 0
8 5 11 0
8 5 13 0
8 6 11 0
8 6 13 0
8 7 9 0
8 7 11 0
8 7 13 0
8 7 20 0
8 9 21 0
8 10 11 0
8 10 13 0
8 11 13 0
8 11 14 0
8 11 15 0
8 11 16 0
8 11 17 0
8 11 19 0
8 11 20 0
8 11 21 0
8 13 14 0
8 13 15 0
8 13 16 0
8 13 17 0
8 13 19 0
8 13 21 0
8 20 21 0
9 2 4 0
9 2 5 0
9 2 6 0
9 2 8 0
9 2 10 0
9 2 13 0
9 2 14 0
9 2 15 0
9 2 16 0
9 2 17 0
9 2 19 0
9 2 20 0
9 3 5 0
9 3 6 0
9 3 10 0
9 3 13 0
9 3 14 0
9 3 15 0
9 3 16 0
9 3 17 0
9 3 19 0
9 3 20 0
9 4 13 0
9 4 18 0
9 5 11 0
9 5 13 0
9 5 18 0
9 6 11 0
9 6 13 0
9 6 18 0
9 8 18 0
9 10 11 0
9 10 13 0
9 10 18 0
9 11 13 0
9 11 14 0
9 11 15 0
9 11 16 0
9 11 17 0
9 11 19 0
9 11 20 0
9 13 14 0
9 13 15 0
9 13 16 0
9 13 17 0
9 13 18 0
9 13 19 0
9 14 18 0
9 15 18 0
9 16 18 0
9 17 18 0
9 18 19 0
9 18 20 0
10 1 4 0
10 1 8 0
10 1 9 0
10 1 20 0
10 4 7 0
10 4 21 0
10 7 9 0
10 7 20 0
10 9 21 0
10 20 21 0
11 2 4 0
11 2 8 0
11 4 18 0
11 8 18 0
13 9 12 0
13 20 12 0
13 12 8 0
14 1 4 0
14 1 8 0
14 1 9 0
14 1 20 0
14 4 7 0
14 4 21 0
14 7 9 0
14 7 20 0
14 9 21 0
14 20 21 0
15 1 4 0
15 1 8 0
15 1 9 0
15 1 20 0
15 4 7 0
15 4 21 0
15 7 9 0
15 7 20 0
15 9 21 0
15 20 21 0
16 1 4 0
16 1 8 0
16 1 9 0
16 1 20 0
16 4 7 0
16 4 21 0
16 7 9 0
16 7 20 0
16 9 21 0
16 20 21 0
17 1 4 0
17 1 8 0
17 1 9 0
17 1 20 0
17 4 7 0
17 4 21 0
17 7 9 0
17 7 20 0
17 9 21 0
17 20 21 0
19 1 4 0
19 1 8 0
19 1 9 0
19 1 20 0
19 4 7 0
19 4 21 0
19 7 9 0
19 7 20 0
19 9 21 0
19 20 21 0
20 4 13 0
20 5 13 0
20 6 13 0
20 10 13 0
20 13 14 0
20 13 15 0
20 13 16 0
20 13 17 0
20 13 19 0
21 1 8 0
